1069238
6,75,41,60,32,74,70,1,80,72,88,50,42,35,97,2,27,64,5,3,85,89,8,53,91,36,83,15,82,61,58,16,67,46,28,11,23,54,90,59,19,12,94,26,40,17,29,79,51,78,25,84,92,39,7,66,4,48,37,68,44,55,31,77,96,30,21,20,9,33,57,47,95,73,22,52,43,24,71,34,98,65,14,81,86,45,87,38,76,99,63,13,93,49,62,18,69,10,56